000 -99 000 000 000 000 000 000 -99 -99 -99 -99 -99 000 000 -99 -99 -99 000 000 000 000 000 000 000 000 -99 -99 -99 -99 -99
000 -99 000 000 000 000 000 000 -99 -99 -99 -99 -99 000 000 000 -99 000 -99 000 000 000 000 000 000 000 -99 -99 -99 -99 -99
000 -99 000 000 000 000 000 000 -99 000 -99 000 -99 -99 000 000 000 000 001 000 000 000 000 000 000 000 000 -99 -99 -99 -99
000 -99 000 000 000 000 000 000 000 000 000 000 000 000 000 -99 000 000 001 001 000 001 005 001 000 000 000 -99 -99 -99 -99
000 000 000 000 000 000 000 000 000 000 000 000 000 000 000 000 000 001 002 007 001 003 012 008 002 001 005 -99 -99 -99 -99
000 000 000 000 000 000 000 000 000 000 000 000 000 000 000 000 001 007 012 041 039 005 007 022 012 009 005 011 015 005 000
000 001 003 001 000 000 000 000 000 000 000 000 000 004 000 001 008 034 061 105 211 031 008 031 017 018 020 010 012 011 001
000 003 002 001 000 000 000 000 000 002 005 000 000 005 001 003 034 116 126 187 271 118 028 026 047 066 085 025 011 022 002
000 003 006 001 000 001 000 000 001 004 013 006 001 001 002 005 022 092 307 265 347 158 146 069 105 111 114 098 046 080 009
001 003 007 006 002 001 002 000 002 012 020 022 003 003 005 010 034 060 162 207 249 168 140 179 230 158 126 162 071 207 115
006 003 002 005 002 002 002 002 003 012 025 044 037 015 011 010 035 022 075 085 158 143 152 199 357 146 158 200 211 211 109
010 005 003 011 006 005 006 011 008 021 035 096 058 020 008 017 026 024 064 035 023 066 172 203 271 283 146 195 195 230 129
016 006 006 022 031 013 016 028 018 021 054 100 053 029 019 011 017 016 010 015 011 023 134 195 211 260 216 187 220 191 092
014 005 011 009 027 021 029 054 033 047 044 050 047 030 022 009 017 016 010 008 004 007 060 121 118 044 064 114 306 146 048
018 011 004 007 010 021 039 029 025 042 044 050 045 024 014 006 003 003 002 000 001 002 026 032 047 026 045 109 239 100 011
023 025 004 006 011 017 028 026 025 027 033 015 025 019 007 007 002 003 001 001 001 002 006 010 021 012 014 050 030 026 004
017 009 003 002 010 010 018 017 022 024 038 031 028 014 005 005 002 002 001 000 001 002 003 006 013 021 004 008 006 017 004
013 006 005 005 004 005 015 012 013 016 019 061 032 015 004 005 003 002 001 001 004 002 002 004 019 024 005 004 002 004 002
006 005 006 006 004 007 010 009 013 010 008 028 046 014 008 010 006 003 001 002 004 002 003 006 017 024 029 017 018 010 010
005 006 008 007 005 005 004 005 006 003 002 020 020 012 018 020 012 006 003 005 004 003 003 007 014 037 066 030 029 026 023
007 007 012 005 008 004 006 004 006 003 002 009 007 012 017 010 008 003 002 003 002 001 002 005 010 028 042 054 044 035 030
006 007 008 006 008 005 006 003 004 003 004 007 008 016 011 010 007 004 002 002 002 002 003 003 005 011 019 046 096 085 089
005 004 006 005 008 006 004 001 003 005 005 005 006 012 008 008 005 003 002 002 002 001 002 003 004 006 009 037 050 060 064
002 002 004 004 006 005 006 003 002 004 003 004 003 006 004 004 002 001 002 001 002 001 002 -99 003 003 005 030 025 042 046
001 002 005 004 004 002 002 003 002 002 002 001 002 001 001 002 001 001 001 001 002 001 002 -99 -99 003 -99 019 015 017 015
001 001 004 001 002 001 001 001 002 002 001 001 001 001 001 001 001 001 001 001 001 001 001 -99 -99 -99 -99 -99 010 004 002
001 002 001 001 001 001 001 001 001 001 000 001 000 000 000 000 001 001 001 002 001 001 001 -99 -99 -99 -99 -99 -99 001 000
000 001 000 000 000 000 000 002 001 001 000 001 001 001 001 001 002 001 002 002 001 001 001 -99 -99 -99 -99 -99 -99 001 001
000 000 000 000 000 000 000 000 001 001 000 000 001 001 001 002 002 001 002 001 001 001 002 001 -99 002 002 -99 001 001 002
000 000 001 000 000 000 000 000 000 000 000 000 001 000 002 001 001 001 001 001 001 002 001 002 002 002 002 002 002 002 004
000 000 000 000 000 000 000 000 000 000 000 000 000 001 001 001 001 001 000 001 001 001 001 002 002 002 002 002 003 004 004
000 000 000 000 000 000 000 000 000 000 000 000 001 002 001 001 001 000 001 000 001 001 001 001 001 002 003 002 003 004 003
000 000 000 000 000 000 000 000 000 000 000 000 000 000 001 001 001 000 001 001 001 001 001 000 001 002 003 002 002 001 001
000 000 000 000 000 000 000 000 000 000 000 000 000 000 001 003 001 000 001 001 001 001 000 000 000 000 002 001 001 001 000
000 000 000 000 000 000 000 000 000 000 000 000 000 000 001 001 001 000 001 001 002 000 000 000 000 000 001 000 000 000 000
000 000 000 000 000 000 000 000 000 000 000 000 000 000 000 000 000 000 000 000 001 000 000 000 000 000 000 000 000 000 000
000 000 000 000 000 -99 000 000 000 000 000 000 000 000 000 000 000 000 000 000 000 000 000 000 000 000 000 000 000 000 000
000 000 000 000 000 -99 000 000 000 000 000 000 000 000 000 000 000 000 000 001 000 000 000 000 000 000 000 000 000 000 000
000 000 000 -99 -99 -99 000 000 -99 000 -99 000 000 000 000 000 000 000 001 001 000 000 000 000 000 000 000 000 000 000 000
-99 000 000 -99 -99 -99 000 -99 -99 -99 -99 000 000 000 000 000 000 000 000 000 000 000 000 000 000 000 000 000 000 000 000
000 000 000 000 -99 -99 -99 -99 -99 000 000 000 000 000 000 000 000 000 000 000 000 000 000 000 000 000 000 000 000 000 000
000 000 -99 -99 -99 -99 -99 -99 -99 000 000 000 000 000 000 000 000 000 000 000 000 000 000 000 000 000 000 000 000 000 000
000 000 -99 -99 -99 000 -99 000 000 000 000 000 000 000 000 000 000 000 000 000 000 000 000 000 000 000 000 000 000 000 000
000 -99 -99 -99 -99 000 000 000 000 000 000 000 000 000 000 000 000 000 000 000 000 000 000 000 000 000 000 000 000 000 000
-99 -99 -99 -99 -99 000 -99 -99 -99 000 000 000 000 000 000 000 000 000 000 -99 000 000 000 000 000 000 000 000 000 -99 -99
-99 -99 -99 -99 -99 -99 -99 -99 -99 -99 000 000 000 000 000 000 -99 000 000 -99 -99 000 000 000 000 000 000 -99 -99 -99 -99
-99 -99 -99 -99 -99 -99 -99 -99 -99 -99 -99 000 000 000 000 -99 -99 000 -99 -99 -99 000 000 -99 -99 000 000 -99 -99 -99 -99
-99 -99 -99 -99 -99 -99 -99 -99 000 000 -99 -99 000 000 000 -99 -99 000 -99 000 000 000 000 -99 000 000 -99 -99 -99 -99 -99
-99 -99 -99 -99 -99 -99 -99 -99 000 000 -99 -99 000 000 -99 -99 000 000 000 000 000 000 -99 -99 000 000 -99 -99 -99 -99 -99
-99 -99 -99 -99 -99 -99 -99 -99 000 000 -99 000 000 000 -99 -99 000 000 000 000 -99 -99 -99 000 000 000 -99 -99 -99 -99 -99
-99 -99 -99 -99 -99 -99 -99 -99 000 000 -99 000 000 -99 -99 -99 -99 000 000 000 -99 -99 -99 000 000 000 -99 -99 -99 -99 -99
-99 -99 -99 -99 -99 -99 -99 -99 000 -99 -99 000 -99 -99 -99 -99 -99 000 000 000 -99 -99 -99 -99 -99 -99 -99 -99 -99 -99 -99
-99 -99 -99 -99 -99 -99 -99 -99 -99 -99 -99 -99 -99 -99 -99 -99 -99 000 000 -99 -99 -99 -99 -99 -99 -99 -99 -99 -99 -99 -99
-99 -99 -99 -99 -99 -99 -99 -99 -99 -99 -99 -99 -99 -99 -99 -99 000 000 000 -99 -99 -99 -99 -99 -99 -99 -99 -99 -99 -99 -99
-99 -99 -99 -99 -99 -99 -99 -99 -99 -99 -99 -99 -99 -99 -99 -99 000 000 000 -99 -99 -99 -99 -99 -99 -99 -99 -99 -99 -99 -99
